$$$$$$$$$$$$$$$$$$$$$$$$$$$$$$$$$ MODELO A $$$$$$$$$$$$$$$$$$$$$$$$$$$$$$$$$$$$$$$$$$$$$$$$$$$$$$$$$$$$$$$$

[ T - T r a c k ]
mesh = xyz
x-type = 2
nx = 25
xmin = -4.
xmax = 4.
y-type = 2
ny = 60
ymin = -6.
ymax = 5.
z-type = 1
nz = 1
98.5125 98.5225
part = proton
e-type = 1
ne = 1
0.0 1000.0
unit = 1
axis = xy
file = ./out/track_xy.out
gshow = 1
epsout = 1

[ T - T r a c k ]
mesh = xyz
x-type = 1
nx = 1
0.0 0.1
y-type = 2
ny = 150
ymin = -10.
ymax = 10.
z-type = 2
nz = 500
zmin = -10.
zmax = 110.
part = proton
e-type = 1
ne = 1
0.0 1000.0
unit = 1
axis = yz
file = ./out/track_yz.out
gshow = 1
epsout = 1

[ T - D e p o s i t ]
title = Bragg peak in pouch
mesh = r-z
r-type = 2
rmin = 0.0
rmax = 0.5
nr = 1
z-type = 2
zmin = 97.
zmax = 99.
nz = 200
part = proton
output = dose
unit = 0
axis = z
file = ./out/bragg_pouch_z.out
epsout = 1

[ T - D e p o s i t ]
title = Radial dose in pouch
mesh = r-z
r-type = 2
rmin = 0.0
rmax = 1.7
nr = 60
z-type = 2
zmin = 98.455
zmax = 98.580
nz = 1
part = proton
output = dose
unit = 0
axis = r
file = ./out/bragg_pouch_r.out
epsout = 1

[ T - T r a c k ]
title = Espectro de energia en el gel
mesh = reg
reg = 600
e-type = 2
ne = 100
emin = 1.0e-9
emax = 25.0
unit = 1
axis = eng
file = ./out/energy_gel.out
part = proton

[ T - D e p o s i t ]
title = Histograma dosis-volumen del pouch
mesh = xyz
x-type = 2
xmin = -0.8
xmax = 0.8
nx = 16
y-type = 2
ymin = -1.65
ymax = 1.65
ny = 33
z-type = 2
zmin = 98.455
zmax = 98.580
nz = 4
part = proton
output = dose
unit = 0
axis = z
file = ./out/histograma_dosis.out
epsout = 1

[ T - D e p o s i t ] off
title = Dosis xy
mesh = xyz
x-type = 2
xmin = -0.8
xmax = 0.8
nx = 16
y-type = 2
ymin = -1.65
ymax = 1.65
ny = 33
z-type = 2
zmin = 98.455
zmax = 98.580
nz = 4
part = proton photon
output = dose
unit = 0
axis = xy
file = ./out/dosis_pouch_xy.out
epsout = 1
gshow = 1

[ T - D e p o s i t ] off
title = Dosis depositada en el hamster
mesh = reg
reg = 700
unit = 0
axis = reg
file = ./out/dosis_hamster.out
part = proton photon
output = dose
epsout = 1

[ T - D e p o s i t ] off
title = Dosis depositada en el pouch
mesh = reg
reg = 510
unit = 0
axis = reg
file = ./out/dosis_pouch.out
part = proton
output = dose
epsout = 1

[ T - T r a c k ] off
mesh = xyz
x-type = 2
nx = 1
xmin = -0.01
xmax = 0.01
y-type = 4
ydel = 0.3
ymin = -3.
ymax = 3.
z-type = 2
nz = 100
zmin = 95.
zmax = 100.
part = proton
e-type = 1
ne = 1
0.0 1000.0
unit = 1
axis = yz
file = ./out/track_yzposicionador.out
gshow = 1
epsout = 1

[ T - T r a c k ] off
mesh = xyz
x-type = 4
xdel = 0.1
xmin = -10.
xmax = 10.
y-type = 4
ydel = 0.1
ymin = -15.
ymax = 15.
z-type = 1
nz = 1
98.08 98.28
part = proton
e-type = 1
ne = 1
0.0 1000.0
unit = 1
axis = xy
file = ./out/mapa_flujo.out
gshow = 1
epsout = 1

[ T - T r a c k ] off
mesh = reg
reg = 10000
part = proton
e-type = 1
ne = 1
0.0 1000.0
unit = 1
axis = reg
file = ./out/flujo_cilindros.out
gshow = 1
epsout = 1