$$$$$$$$$$$$$$$$$$$$$$$$$$$$$$$$$ CR 39 $$$$$$$$$$$$$$$$$$$$$$$$$$$$$$$$$$$$$$$$$$$$$$$$$$$$$$$$$$$$$$$$


$$$$$ lamina 1 $$$$$

[T-Track]

mesh = reg
reg = 7001
volume
reg    vol
7001   0.054
part = proton
e-type = 2
ne = 1
emin = 1.0e-9
emax = 1000.0
unit = 1
axis = reg 
file = ./out/flujo1_reg.out

[T-Track]

mesh = xyz
x-type = 2
nx = 27
xmin = -1.35
xmax =  1.35
y-type = 2
ny = 8
ymin = 1.0815
ymax = 1.8815
z-type = 2
nz = 1
zmin = 98.380
zmax = 98.405
part = proton
e-type = 2
ne = 1
emin = 1.0e-9
emax = 25.0
unit = 1
axis = xy
file = ./out/flujo1_xyz.out
epsout = 1

$$$$$ lamina 2 $$$$$

[T-Track]

mesh = reg
reg = 7002
volume
reg    vol
7002   0.054
part = proton
e-type = 2
ne = 1
emin = 1.0e-9
emax = 25.0
unit = 1
axis = reg
file = ./out/flujo2_reg.out
epsout = 1

[T-Track]

mesh = xyz
x-type = 2
nx = 27
xmin = -1.35
xmax =  1.35
y-type = 2
ny = 8
ymin = 1.0815
ymax = 1.8815
z-type = 2
nz = 1
zmin = 98.405
zmax = 98.430
part = proton
e-type = 2
ne = 1
emin = 1.0e-9
emax = 25.0
unit = 1
axis = xy
file = ./out/flujo2_xyz.out
epsout = 1

$$$$$ lamina 3 $$$$$

[T-Track]

mesh = reg
reg = 7003
volume
reg    vol
7003   0.108
part = proton
e-type = 2
ne = 1
emin = 1.0e-9
emax = 25.0
unit = 1
axis = reg
file = ./out/flujo3_reg.out
epsout = 1

[T-Track]

mesh = xyz
x-type = 2
nx = 27
xmin = -1.35
xmax = 1.35
y-type = 2
ny = 16
ymin = 0.2815
ymax = 1.8815
z-type = 2
nz = 1
zmin = 98.430
zmax = 98.455
part = proton
e-type = 2
ne = 1
emin = 1.0e-9
emax = 25.0
unit = 1
axis = xy
file = ./out/flujo3_xyz.out
epsout = 1

$$$$$ lamina 4 $$$$$

[T-Track]

mesh = reg
reg = 7004
volume
reg    vol
7004   0.108
part = proton
e-type = 2
ne = 1
emin = 1.0e-9
emax = 25.0
unit = 1
axis = reg
file = ./out/flujo4_reg.out
epsout = 1

[T-Track]

mesh = xyz
x-type = 2
nx = 27
xmin = -1.35
xmax = 1.35
y-type = 2
ny = 16
ymin = 0.2815
ymax = 1.8815
z-type = 2
nz = 1
zmin = 98.455
zmax = 98.480
part = proton
e-type = 2
ne = 1
emin = 1.0e-9
emax = 25.0
unit = 1
axis = xy
file = ./out/flujo4_xyz.out
epsout = 1

$$$$$ lamina 5 $$$$$

[T-Track]

mesh = reg
reg = 7005
volume
reg    vol
7005   0.162
part = proton
e-type = 2
ne = 1
emin = 1.0e-9
emax = 25.0
unit = 1
axis = reg
file = ./out/flujo5_reg.out
epsout = 1

[T-Track]

mesh = xyz
x-type = 2
nx = 27
xmin = -1.35
xmax = 1.35
y-type = 2
ny = 24
ymin = -0.5185
ymax = 1.8815
z-type = 2
nz = 1
zmin = 98.480
zmax = 98.505
part = proton
e-type = 2
ne = 1
emin = 1.0e-9
emax = 25.0
unit = 1
axis = xy
file = ./out/flujo5_xyz.out
epsout = 1

$$$$$$$ lamina 6 $$$$$

[T-Track]

mesh = reg
reg = 7006
volume
reg    vol
7006   0.162
part = proton
e-type = 2
ne = 1
emin = 1.0e-9
emax = 25.0
unit = 1
axis = reg
file = ./out/flujo6_reg.out
epsout = 1

[T-Track]

mesh = xyz
x-type = 2
nx = 27
xmin = -1.35
xmax = 1.35
y-type = 2
ny = 24
ymin = -0.5185
ymax = 1.8815
z-type = 2
nz = 1
zmin = 98.505
zmax = 98.530
part = proton
e-type = 2
ne = 1
emin = 1.0e-9
emax = 25.0
unit = 1
axis = xy
file = ./out/flujo6_xyz.out
epsout = 1

$$$$$$ lamina 7 $$$$$

[T-Track]

mesh = reg
reg = 7007
volume
reg    vol
7007   0.216
part = proton
e-type = 2
ne = 1
emin = 1.0e-9
emax = 25.0
unit = 1
axis = reg
file = ./out/flujo7_reg.out
epsout = 1

[T-Track]

mesh = xyz
x-type = 2
nx = 27
xmin = -1.35
xmax = 1.35
y-type = 2
ny = 32
ymin = -1.3185
ymax = 1.8815
z-type = 2
nz = 1
zmin = 98.530
zmax = 98.555
part = proton
e-type = 2
ne = 1
emin = 1.0e-9
emax = 25.0
unit = 1
axis = xy
file = ./out/flujo7_xyz.out
epsout = 1

$$$$$ lamina 8 $$$$$

[T-Track]

mesh = reg
reg = 7008
volume
reg    vol
7008   0.216
part = proton
e-type = 2
ne = 1
emin = 1.0e-9
emax = 25.0
unit = 1
axis = reg
file = ./out/flujo8_reg.out
epsout = 1

[T-Track]

mesh = xyz
x-type = 2
nx = 27
xmin = -1.35
xmax = 1.35
y-type = 2
ny = 32
ymin = -1.3185
ymax = 1.8815
z-type = 2
nz = 1
zmin = 98.555
zmax = 98.580
part = proton
e-type = 2
ne = 1
emin = 1.0e-9
emax = 25.0
unit = 1
axis = xy
file = ./out/flujo8_xyz.out
epsout = 1

$ Medimos dosis: 

[ T - D e p o s i t ]   $ histograma dosis-volumen CR39 + gel

title = Histograma
mesh = xyz
x-type = 2
xmin = -1.7500
xmax = 1.7500
nx = 35
y-type = 2
ymin = -1.3185
ymax = 1.8815
ny = 32
z-type = 2
zmin = 98.330
zmax = 98.580
nz = 10
part = proton
output = dose
unit = 0
axis = z
file = ./out/histograma_dosis_CR39.out
epsout = 1

$ Espectros a la entrada y salida:

[ T - C r o s s ]

title = Espectro entrada CR39
mesh = xyz
x-type = 2
xmin = -1.35
xmax = 1.35
nx = 1
y-type = 2
ymin = 1.0815
ymax = 1.8815
ny = 1
z-type = 1
nz = 0
98.3801
part = proton
e-type = 2
ne = 100
emin = 1.0e-9
emax = 25.0
output = f-curr
unit = 2
axis = eng
file = ./out/espectro_entrada_CR39.out
epsout = 1

[ T - C r o s s ]

title = Espectro salida CR39
mesh = xyz
x-type = 2
xmin = -1.35
xmax = 1.35
nx = 1
y-type = 2
ymin = -1.3185
ymax = 1.8815
ny = 1
z-type = 1
nz = 0
98.5799
part = proton
e-type = 2
ne = 100
emin = 1.0e-9
emax = 25.0
output = f-curr
unit = 2
axis = eng
file = ./out/espectro_salida_CR39.out
epsout = 1

$ Pico de Bragg (SOBP)

[ T - D e p o s i t ]  $ dosis depositada en profundidad
title = Bragg peak in cr
mesh = r-z
r-type = 2
rmin = 0.0
rmax = 0.5
nr = 1
z-type = 2 
zmin = 97
zmax = 100           
nz = 300                    
part = proton
output = dose
unit = 0
axis = z
file = ./out/bragg_cr.out
epsout = 1

$$$$$$$$$$$$$$$$$$$$$$$$$$$$$$$$$$$$$$$$$$$$$$$$$$$$$$$$$$$$$$$$$$$$$$$$$$$$$$$$$$$$$$$$$$$$$$$$$$$$$$$$




