$[ S u r f a c e ]

$ Caja exterior de acrilico
3000 90 rpp -14.9385 -1.4685  -2.609 2.621  58.08 63.0
    
$ Hueco interior
3100 90 rpp -14.6885 -1.7185  -2.359 2.371  58.08 62.75

$ Hueco hacia trampolin
3200 90 rpp -1.7185 -1.4685  -1.750 1.750  60.18 61.01

$ Trampolin / soporte del pouch igual al real
3300 90 rpp -1.4685 1.7315  -1.750 1.750  60.58 61.01 

$------------------------ Pileta trampolin de PLA ------------------------

$ Pared izq (hacia y positivo)
3400 90 rpp -1.4685 1.7315   1.750 2.05  60.58 61.01    

$ Pared der
3500 90 rpp -1.4685 1.7315  -2.05 -1.750  60.58 61.01

$ Pared frontal
3600 90 rpp 1.7315 2.0315  -2.05 2.05  60.33 61.01      $ para tener 0.05 cm de gel

$------------nivel para poner gel--------------------------------

$ nivel izq
9000 90 rpp -1.4685 1.7315   1.75 2.05  60.33 60.38      $ para tener 0.05 cm de gel

$ nivel der
9001 90 rpp -1.4685 1.7315  -2.05 -1.75  60.33 60.38      $ para tener 0.05 cm de gel

$ nivel izq inferior / extensión
9002 90 rpp -1.4685 1.7315   1.35 2.05   60.38 60.58

$ nivel der inferior / extensión
9003 90 rpp -1.4685 1.7315  -2.05 -1.35  60.38 60.58

$ tapa completa abajo

9004 90 rpp -1.4685 2.05 -2.05 2.05 61.01 61.21

$-------------BLINDAJE-------------------------------
$ Tapa: superficie superior
3700 90 rpp -14.9385 -1.4685  -2.609 2.621  57.58 58.08

$------------guillotina----------------------------

3800 90 rpp -1.7185 -1.4685  -1.750 1.750  58.08 60.38  $ le dejo 2 mm de aire

$------------bloque de plomo----------------------------
$10000 90 rpp -14.9385 -1.4685  -4.609 4.621  50.58 57.58