$$$$$$$$$$$$$$$$$$$$$$$$$$$$$$$$$ MODELO L $$$$$$$$$$$$$$$$$$$$$$$$$$$$$$$$$$$$$$$$$$$$$$$$$$$$$$$$$$$$$$$$

[ T - T r a c k ] $ flujo de protones a la altura del pouch
mesh = xyz
x-type = 4
xdel = 0.3                
xmin= -10 
xmax=  10 
#xmin = -4.
#xmax = 4.
y-type = 4
ydel = 0.3 
ymin= -15 
ymax=  15              
z-type = 1
nz = 1
98.470 98.490            $ centro del pouch z= 98.480 +- 0.01 cm / para ver la cinta: 98.373  98.378 /98.485  98.49
part = proton photon 
e-type = 1
ne = 1
0.0 1000.0
unit = 1
axis = xy
file = ./out/track_xy_L.out
gshow = 1
epsout = 1


[ T - T r a c k ] $ flujo de particulas en yz
mesh = xyz
x-type = 1
nx = 1
0. 0.1
y-type = 2
ny = 150          
ymin = -10.
ymax = 10.
z-type = 2            
nz = 500
zmin = -10 
zmax = 110.
part = proton
e-type = 1
ne = 1
0.0 1000.0
unit = 1
axis = yz
file = ./out/track_yz_L.out
gshow = 1
epsout = 1

[ T - T r a c k ]  $ flujo de particulas en yz
mesh = xyz
x-type = 1
nx = 1
0. 0.1
y-type = 2
ny = 150          
ymin = -10.
ymax = 10.
z-type = 2            
nz = 500
zmin = -10 
zmax = 110.
part = photon
e-type = 1
ne = 1
0.0 1000.0
unit = 1
axis = yz
file = ./out/track_yz_gamma_L.out
gshow = 1
epsout = 1

[ T - D e p o s i t ]  $ dosis depositada en profundidad
title = Bragg peak in pouch
mesh = r-z
r-type = 2
rmin = 0.0
rmax = 0.5
nr = 1
z-type = 2 
zmin = 80
zmax = 100           
nz = 300                    
part = proton
output = dose
unit = 0
axis = z
file = ./out/bragg_pouch_zL.out
epsout = 1

[ T - D e p o s i t ]  $ dosis radial en el pouch
title = Bragg peak in pouch, ahora con radio 1
mesh = r-z
r-type = 2
rmin = 0.0
rmax = 1.7     
nr = 60
z-type = 2
zmin = 98.38
zmax = 98.58
nz = 1
part = proton
output = dose
unit = 0
axis = r
file = ./out/bragg_pouch_rL.out
epsout = 1

[ T - Track ] off  $ para ver que particulas le llega al hamster
title = Espectro de energia
mesh = reg
reg = 700
e-type = 2
ne = 100
emin = 1.0e-9
emax = 25.0
unit = 1
axis = eng
file = ./out/energy_hamster_L.out
part = proton neutron alpha photon positron

[ T - D e p o s i t ]   $ histograma dosis-volumen del pouch
title = Histograma
mesh = xyz
x-type = 2               
xmin = -0.8
xmax = 0.8
nx = 16
y-type = 2                 
ymin = -1.65
ymax = 1.65
ny = 33 
z-type = 2
zmin = 98.38
zmax = 98.58
nz = 4
part = proton
output = dose
unit = 0
axis = z
file = ./out/histograma_dosis_L.out
epsout = 1

[ T - Deposit]   
title = Dosis xy 
mesh = xyz
x-type = 2               
xmin = -0.8
xmax = 0.8
nx = 16
y-type = 2                 
ymin = -1.65
ymax = 1.65
ny = 33 
z-type = 2
zmin = 98.38
zmax = 98.58
nz = 4
part = proton photon 
unit = 0
axis = xy 
file = ./out/dosis_pauch_L.out
epsout = 1
gshow = 1

[ T - D e p o s i t ] off 
title = Dosis depositada en el hamster de photones protones
mesh = reg
reg = 700
unit = 0
axis = reg
file = ./out/dosis_hamster_L.out
part = proton photon 
output = dose
epsout = 1

[ T - D e p o s i t ] off 
title = Dosis depositada en el hamster de photones protones
mesh = reg
reg = 510
unit = 0
axis = reg
file = ./out/dosis_pouch_L.out
part = proton photon 
output = dose
epsout = 1

[ T - T r a c k ] $ flujo de protones a la altura del pouch
mesh = xyz
x-type = 2
nx = 1                 
xmin= -0.01
xmax=  0.01
#xmin = -4.
#xmax = 4.
y-type = 4
ydel = 0.3 
ymin= -3 
ymax=  3              
z-type = 2
nz = 100
zmin= 95
zmax =100 
part = proton 
e-type = 1
ne = 1
0.0 1000.0
unit = 1
axis = yz
file = ./out/track_xz.out
gshow = 1
epsout = 1


[ T - T r a c k ] $ flujo de protones a la altura del pouch
mesh = xyz
x-type = 4
xdel = 0.1                
xmin= -10 
xmax=  10 
#xmin = -4.
#xmax = 4.
y-type = 4
ydel = 0.1 
ymin= -15 
ymax=  15              
z-type = 1
nz = 1
98.13 98.33            $ centro del pouch z= 98.480 +- 0.01 cm / para ver la cinta: 98.373  98.378 /98.485  98.49
part = proton 
e-type = 1
ne = 1
0.0 1000.0
unit = 1
axis = xy
file = ./out/mapa_flujo.out
gshow = 1
epsout = 1

[ T - T r a c k ] $ flujo de protones a la altura del  pouch y laterales 
mesh = reg 
reg= (20002<20005) $cilindro de aire  
     (20002<20006) $cilindro de aire 
	 (20003<20005) $cilindro de Si 
     (20003<20006) $cilindro de Si 
part = proton 
e-type = 1
ne = 1
0.0 1000.0
unit = 1
axis = reg
file = ./out/flujo_cilindros.out
gshow = 1
epsout = 1


[ T - T r a c k ] $ flujo de protones a la altura del pouch
mesh = xyz
x-type = 2
nx=1                 
xmin= -0.01
xmax=  0.01
y-type = 4
ydel = 0.1 
ymin= -15
ymax=  15              
z-type = 4
zdel= 0.1 
zmin=90
zmax=105             
part = proton 
e-type = 1
ne = 1
0.0 1000.0
unit = 1
axis = yz
file = ./out/detectores.out
gshow = 1
epsout = 1

[ T - T r a c k ] $ flujo de protones a la altura del pouch
mesh = xyz
x-type = 2
nx=100                 
xmin= -10
xmax=  10
y-type = 4
ydel = 0.1 
ymin= -0.01
ymax=  0.01              
z-type = 4
zdel= 0.1 
zmin=95
zmax=100             
part = proton 
e-type = 1
ne = 1
0.0 1000.0
unit = 1
axis = xz
file = ./out/detectores-2.out
gshow = 1
epsout = 1

[T-Cross] 
title = Proton response in air channel
mesh = reg
reg = 6
r-from   r-to         area
(20002<20005)       (20003<20005)        1.0 $ Aire ->Si 
(20001<20005)       (20003<20005)        1.0 $ Al -> Si 
(20002<20006)       (20003<20006)        1.0 $ Aire ->Si 
(20001<20006)       (20003<20006)        1.0 $ Al -> Si 
(20002<20007)       (20003<20007)        1.0 $ Aire ->Si 
(20001<20007)       (20003<20007)        1.0 $ Al -> Si 
part = proton
output = f-curr
axis=reg 
e-type = 2
ne = 1
emin = 0.0
emax = 1000
epsout = 1
file=./out/protones_detector.out 

