$ [S u r f a c e]

$ [S u r f a c e]

$ escalones descendientes hacia y negativo
$ 4 escalones, cada uno formado por 2 RPP de 250 um

7001 90 rpp  0.9315  1.7315  -1.35 1.35  60.380 60.405   $ escalon 1 - 250 um
7002 90 rpp  0.9315  1.7315  -1.35 1.35  60.405 60.430   $ escalon 1 - 250 um

7003 90 rpp  0.1315  1.7315  -1.35 1.35  60.430 60.455   $ escalon 2 - 250 um
7004 90 rpp  0.1315  1.7315  -1.35 1.35  60.455 60.480   $ escalon 2 - 250 um

7005 90 rpp -0.6685  1.7315  -1.35 1.35  60.480 60.505   $ escalon 3 - 250 um
7006 90 rpp -0.6685  1.7315  -1.35 1.35  60.505 60.530   $ escalon 3 - 250 um

7007 90 rpp -1.4685  1.7315  -1.35 1.35  60.530 60.555   $ escalon 4 - 250 um
7008 90 rpp -1.4685  1.7315  -1.35 1.35  60.555 60.580   $ escalon 4 - 250 um

 