$OMP = 0
$$MPI = 32
$RWT = 2
[ Title ]
Vertical external proton beam - modular input

[ Parameters ]
file(1) = /share/gidans/sebastiangossio/Programas/PIHTS-IFORT/phits   
#file(1)=c:/phits

icntl	= 0  $  0: transport	5: source	8: 2D geometry	11: 3D geometry	14: volume	16: script mode	17: Anatally mode
maxcas	= 1000 $ (D=10) number of particles per one batch
maxbch	= 200000 $ (D=10) number of batches
istdev	= 2 $Statistical uncertainties estimated from the standard error of: 1=each batch result. 2=each history result.
nspred	= 2 $2= Coulomb diﬀusion by the Lynch’s formula based on the Moliere theory
nedisp	= 1 $1= Landau Vavilov energy straggling
istdcut	= 1 $Stop when its statistical uncertainty becomes less than stdcut.
delt0	= 4e-5 $Minimum ﬂight mesh [cm], should be set to 1/10 of the minimum thickness of thin films less than 1 cm when describing a scattering process.
ireschk	= 1 $Control parameter for tally consistency check. The inconsistency of a tally may occur as the result of the loss of signiﬁcant digits in the PHITS input ﬁle
nlost	= 10000 $number of tolerance of lost particles before stopping the run.
e-mode	= 0 $When e-mode≠0 and high-energy nuclear data libraries are used, PHITS determines the reaction point using the total cross section contained in the high-energy nuclear data libraries while the information on secondary particles is evaluated using the nuclear reaction models
$igeomem = 200000
itall    =       0 # 1:actualiza los graficos,0: no actualiza, -1: no graba nada
 maxbnk  = 10000*100           # (D=10000) maximum bank memory length
#rseed=6.647299061401E+12 #valor por defecto 
 rseed=6.647888455658E+12
 infout1=8


$  required options for DCHAIN (also e-mode=0)
$ igamma	= 3 $ (D=2) 0:No, 1:Old, 2:EBITEM,3:EBITEM+Isomer
$ jmout	= 1 $ (D=0) Density echo, 0:input, 1:number densityc 
$ dmax(1)	= 200.0 $ (D=emin(1)) data max. energy of proton (MeV)
$ dmax(2)	= 200.0 $ (D=emin(2)) data max. energy of neutron (MeV)

set: c1[ 0.5 ]	$beam radius
set: c2[ 19.5 ]	$accelerator terminal tension
$$infl:{c2.inp} $Reemplazar una variable linealmente

set:%thisdata%[_21MeV_dchain]	$for tallies
file(6)	= ./out/phits.out
file(22) = ./out/batch.out


[ Source ]
totfact	= 1.0e-9 / 1.602177e-19	$Transform from particles to beam current: proton/s = nanocurrent (nA = 10^(-9) C/s) / charge (C/proton)
proj	= proton
s-type	= 1	$1 = monoenergetic, 11 = emitance beam, 13 = xy Gaussian beam 
  r0	= c1
  z0	= -3.0	$ minimum position of z-axis [cm]
  z1	= -3.0	$ maximum position of z-axis [cm]
 dir	= 1.0	$ z-direction of beam [cosine]
  e0	= c2


[ Importance ] off 
  part =  proton  
  reg                       imp
  20001                     1.0 

[ Material ]
infl:{./dat/mat.dat}



[ Mat Name Color ]
mat name   color
1	Air    cyan
2	Al     lightgray
3	{Structure - steel}   brown
4	{Stainless steel}    gray
5	Havar  rrr
6	Pb     matblack
7	{Petri dish - polystyrene}   {0.7 0.3 1.0}
8	Water  ccc
9	Nylon  gg
10	{3D printer - PLA}   orange
11	{O-ring}  black
12	{ICRU-4 soft tissue}   magenta
13	Si   yellow
14	Mylar  pastelpink
15	Blood  red
16  pouch  pink
17  acrilico white
18  skin  brown
19 plastic gg
20 scotch  red

[ Surface ]
$Room
1 RCC 0.0  0.0  -50.0  0.0  0.0  200.0  200.0	$Vertical beam room

$ Magnet body main workzone%
2 PZ  0.0	$ beam exit window
3 PZ  63.0	$ magnet body top (entrance box)
4 PX  -30.0
5 PX   30.0
6 PY  -19.0
7 PY   19.0
8 PZ  102.5
9 PZ  101.0	$ magnet body bottom

set:%workzone%[4 -5 6 -7 2 -9]
set:%workzone_walls%[4 -5 6 -7]

set: c3[ 1.87 ]	$attenuator distance from havar
set: c4[ 7.6 ]	$disp 1 distance from havar
set: c5[ 34.58 ]	$disp 2 distance from havar
set: c6[ c5 + 0.2665 ]	$occluder distance from havar
set: c7[ 101.0 ]	$sample table distance from havar
set: c8[ 19.4 ]	$pin diodes distance from havar (originally 19.4 cm)

infl:{./dat/Su_iman.inp}
infl:{./dat/Su_viga.inp}
infl:{./dat/Su_atenuador.inp}
infl:{./dat/Su_dispersor1.inp}
infl:{./dat/Su_dispersor2.inp}
infl:{./dat/Su_oclusor.inp}
$infl:{./dat/Su_fondo.inp}
$infl:{./dat/Su_fondo_mylar.inp}
$infl:{./dat/Su_diodos.inp}
$infl:{./dat/Su_ridge_filter_4.inp}
infl:{./dat/Su_ridge_filter_9.inp}

$set: c100[ c7 + c61 - c63 - c68 ]	$cell monolayer start
$set: c101[ c100 + c68 ]	$cell monolayer
$set: c102[ c7 + c61 - c63 - c601 ]	$Liquid medium start
$set: c103[ c102 + c69 ]	$Liquid medium
$For inverted Petri
$$set: c100[ c7 + c61 - c66 - c67 + c65 ]	$cell monolayer start
$$set: c101[ c100 + c68 ]	$cell monolayer

$ POUCH (hamster cheek pouch)
100 90 ell -0.15 0.0 60.48  1.65 0.0 0.0  -0.8

$ Planos de corte para definir el pouch (espesor 0.2 cm)
202 90 pz 60.58
201 90 pz 60.38

$ Gel de ultrasonido de 0.1cm de altura total, 0.05 respecto pouch
4000 90 rpp -1.4685 1.7315  -1.750 1.750  60.33 60.58  

$ Cinta scotch --> asumiendo grosor 0.005 cm respecto del pouch
8000 90 rpp -1.4685 1.7315  -1.750 1.750  60.375 60.38

$ POSICIONADOR 
infl:{./dat/Su_posicionador.inp}

$ HAMSTER 
infl:{./dat/Su_hamster.inp}

10000 rcc 0 0 98.13  0 0 0.2 0.05 

$$$ detector 
30000   rcc     0.0 0.0 0.0   0.0  0.0     1.0       2.1    
20000   rcc     0.0 0.0 0.0   0.0  0.0     0.2       2.0 $ alumiio 
20001   rcc     0.0 0.0 0.0   0.0  0.0     0.2       0.05 $ cavidad de aire 
20002   rcc     0.0 0.0 0.2  0.0  0.0      0.1       1.5  $ parte de abajo para contar Si 
60000   so      100 

[ Transform ]
set: c900[ 38 ]

TR10  0 0 c3  0 0 0  0 0  0 0  0 0  3	$attenuator height
TR20  0 0 c4  0 0 0  0 0  0 0  0 0  3	$disp 1 height
TR21 0 -0.2251 0  0 0 0  0 0 0 0 0 0  2	$disp 1 y-correction
TR30  0 0 c5  0 0 0  0 0  0 0  0 0  3	$disp 2 height
*TR31 0 0 0  0 0 0  3 21.841 0 0 0 0  3 	$disp 2 rotation = atan2( 2.0/4.99 )
TR40  0 0 c6  0 0 0  0 0  0 0  0 0  3	$occluder height
TR50  0 0 101.0  0 0 0  0 0  0 0  0 0  3	$sample table height
TR60  0 0 c8  0 0 0  0 0  0 0  0 0  3	$pin diodes height
$TR61  0 0 c100  0 0 0  0 0  0 0  0 0  3	$monolayer cell height
$TR62  0 0 c102  0 0 0  0 0  0 0  0 0  3	$liquid medium height
*TR90  0 0.15 c900   0 0 0   3 90  0 0  0 0   3
tr100    0  10  0 
#tr101   4  -7.8   0
tr500    0  0      97.75
tr501    0  7.5    97.75
tr502    0  -10    97.78 
tr503   -5.405 -6.787 97.75 
tr504   7.062   -6.971 97.75 


[ Cell ]

$10000 %air%  -10000
10001 %air%  -10000 trcl=100  
$10002 %air%  -10000 trcl=101 

infl:{./dat/Ce_iman.inp}
infl:{./dat/Ce_viga.inp}


set:%outside_stuff%[#101 #102 #103 #104]
set:%exclusions%[#2001 #20005 #20006 #20007 #20008 #20009 #10001]


infl:{./dat/Ce_atenuador.inp}
infl:{./dat/Ce_dispersor1.inp}
infl:{./dat/Ce_dispersor2.inp}
infl:{./dat/Ce_oclusor.inp}
$infl:{./dat/Ce_fondo.inp}
$infl:{./dat/Ce_fondo_mylar.inp}
$infl:{./dat/Ce_diodos.inp}
$infl:{./dat/Ce_ridge_filter_4.inp}
infl:{./dat/Ce_ridge_filter_9.inp}

$ Pouch
c 510 16 -1.0  -100  201  -202 #6006 #6005 #6004 #800 

$ Gel ultrasonido
c 600 8 -1.0  -4000 #510 #700 #800 #6006 #6005 #6004 #9000 #9001 #9002 #9003
 
$ Cinta scotch
c 800 20 -1.20  -8000 #6006 #9000 #9001 #9002 #9003


$ POSICIONADOR 
$infl:{./dat/Ce_posicionador.inp}
 
$ HAMSTER 
$ infl:{./dat/Ce_hamster.inp}


20001   %Al%               (-20000 20001)           u=500
20002   %air%              -20001                   u=500 $augero 
20003   %Si%               -20002                   u=500 
20004   %air%              -60000 #20001 #20002 #20003 u=500 

20005        0       -30000      fill=500  trcl=500
20006      like 20005 but trcl=501
20007      like 20005 but trcl=502
20008      like 20005 but trcl=503
20009      like 20005 but trcl=504


1 -1     1  $Deep space
$2 %air% -1 #(%workzone_walls% ((%att_zone%):(%disp1_zone%):(%disp2_zone%):(%ocl_zone%):(%sample_zone%):(%pin_zone%)))  #510 
$     %outside_stuff% %exclusions% $Cover unused workzone with air

$ Modifica la Celda 2 así:
$2 %air% -1 #(%workzone_walls% ((%att_zone%):(%disp1_zone%):(%disp2_zone%):(%ocl_zone%):(%pin_zone%))) #510 #600 #700 #103 #6000 #6001 #6002 #6003 
$      %outside_stuff% %exclusions%
2 %air% -1 #(%workzone_walls% ((%att_zone%):(%disp1_zone%):(%disp2_zone%):(%ocl_zone%):(%pin_zone%))) 
     %exclusions%
     %outside_stuff%

infl:{./dat/volumes.inp}
infl:{./talies/tallies.inp}

[ E n d ]
